(set-logic ALL)
(declare-const BAV1 Bool)
(declare-const BAV2 Bool)
(declare-fun my_rm_uf_rmrm (RoundingMode) RoundingMode)
(assert (= (my_rm_uf_rmrm RTN) RTP))
(assert (= (my_rm_uf_rmrm RTP) RTN))
(assert (= BAV1 (= (my_rm_uf_rmrm RTN) RTP)))
(assert (= BAV2 (= (my_rm_uf_rmrm RTP) RTN)))
(check-sat)
(get-model)
(check-sat-using smt)
(exit)